20
7	61	131	59	74
17	249	178	0	60
27	127	188	79	83
20	51	170	16	58
1	265	414	48	61
9	170	342	29	7
15	232	364	68	52
17	191	334	84	18
12	144	75	91	47
10	51	331	2	74
25	33	307	71	31
15	53	214	37	75
7	44	230	17	34
20	91	326	11	92
28	134	129	36	83
17	109	54	80	19
21	132	414	88	47
16	53	301	71	18
3	159	349	33	94
4	181	363	39	72
